
Gurobi 11.0.2 (win64) logging started Fri Feb 28 12:14:46 2025

Set parameter LogFile to value "C:\Users\yshimane3\Documents\codes\dev-julia\TelescopeTasking.jl\scripts\solutions_JASS_slow\logs\log_STTP1_targetS2_E2_Gurobi.log"
Set parameter Method to value 0

Gurobi 11.0.2 (win64) logging started Fri Feb 28 12:14:57 2025

Set parameter LogFile to value "C:\Users\yshimane3\Documents\codes\dev-julia\TelescopeTasking.jl\scripts\solutions_JASS_slow\logs\log_STTP1_targetS2_E2_Gurobi.log"
Gurobi Optimizer version 11.0.2 build v11.0.2rc0 (win64 - Windows 11.0 (22621.2))

CPU model: 12th Gen Intel(R) Core(TM) i7-12700, instruction set [SSE2|AVX|AVX2]
Thread count: 12 physical cores, 20 logical processors, using up to 20 threads

Optimize a model with 3093642 rows, 4788 columns and 6187470 nonzeros
Model fingerprint: 0x6d80e4a5
Variable types: 0 continuous, 4788 integer (4788 binary)
Coefficient statistics:
  Matrix range     [1e+00, 2e+00]
  Objective range  [1e+00, 1e+00]
  Bounds range     [0e+00, 0e+00]
  RHS range        [1e+00, 2e+00]
Found heuristic solution: objective -0.0000000
Presolve removed 3091687 rows and 4235 columns
Presolve time: 0.74s
Presolved: 1955 rows, 553 columns, 4093 nonzeros
Found heuristic solution: objective 3.0000000
Variable types: 0 continuous, 553 integer (553 binary)
Found heuristic solution: objective 34.0000000

Root relaxation: objective 3.500000e+01, 70 iterations, 0.00 seconds (0.00 work units)

    Nodes    |    Current Node    |     Objective Bounds      |     Work
 Expl Unexpl |  Obj  Depth IntInf | Incumbent    BestBd   Gap | It/Node Time

*    0     0               0      35.0000000   35.00000  0.00%     -    1s

Explored 1 nodes (70 simplex iterations) in 1.25 seconds (1.18 work units)
Thread count was 20 (of 20 available processors)

Solution count 5: 35 34 9 ... -0

Optimal solution found (tolerance 1.00e-04)
Best objective 3.500000000000e+01, best bound 3.500000000000e+01, gap 0.0000%

User-callback calls 461, time in user-callback 0.02 sec
